p cnf 13 31
-13 -12 10 0
13 12 -9 0
13 -11 3 0
-13 11 3 0
13 -11 -2 0
-13 10 -6 0
-13 -10 -1 0
13 -9 -5 0
-13 -9 -2 0
-13 -8 -2 0
12 11 -8 0
12 -10 3 0
12 8 -5 0
12 -8 4 0
12 -8 -2 0
12 -7 -2 0
-12 5 4 0
-11 10 -2 0
11 8 5 0
11 8 -1 0
-11 4 -3 0
10 -6 -4 0
9 -8 5 0
9 8 -1 0
-9 7 -1 0
9 5 -3 0
-8 7 5 0
8 6 -4 0
-6 -3 1 0
5 -4 -3 0
-5 -4 3 0
